100
41 4
13 0
29 1
7 4
11 1
30 4
42 3
24 4
25 2
39 0
41 3
13 4
40 0
14 3
17 4
22 0
39 4
6 4
40 4
40 3
36 0
38 0
20 4
28 4
24 0
21 3
18 0
38 3
35 0
40 2
7 0
6 0
33 4
11 0
34 0
10 4
18 4
9 3
41 0
11 4
14 2
19 0
8 0
27 4
21 0
41 1
29 4
21 4
25 4
28 0
20 1
23 0
16 3
16 4
43 4
19 3
22 3
44 0
11 2
25 0
43 3
33 3
36 4
15 3
40 1
20 0
44 4
3 0
10 0
27 2
20 3
19 4
14 0
37 4
35 1
12 4
32 4
33 0
32 0
32 3
5 0
6 1
17 0
27 1
35 2
26 1
21 1
23 4
12 2
8 4
0 4
0 0
3 4
29 0
24 3
7 3
43 2
15 0
27 3
13 1
